SAT
11 -38 55 -94 26 6 -88 33 -29 46 -86 -100 -60 75 76 25 89 21 73 72 74 28 10 99 -42 19 -44 18 -90 30 37 -13 7 83 40 -20 63 24 -81 -50 -67 -92 59 82 32 23 54 87 39 69 -53 49 51 -77 -57 22 97 -43 2 -68 98 -12 8 84 52 -31 -9 4 95 -1 91 48 27 5 -14 -65 -36 35 -15 -70 45 3 -41 -66 71 -79 16 -58 64 -80 61 -85 -78 96 -47 17 -62 93 -56 -34 0
